NAME: instance_11
TYPE: TSP
COMMENT: 11-city problem
DIMENSION: 11
EDGE_WEIGHT_TYPE: EUC_2D
NODE_COORD_SECTION
0 508 79
1 33 557
2 948 629
3 255 380
4 227 499
5 968 15
6 244 14
7 656 421
8 284 674
9 447 198
10 951 230
EOF
